p cnf 209 946
1 2 3 4 5 6 7 8 9 10  0
-11 1 0
11 -1 0
-12 11 2 0
12 -11 0
12 -2 0
-13 12 3 0
13 -12 0
13 -3 0
-14 13 4 0
14 -13 0
14 -4 0
-15 14 5 0
15 -14 0
15 -5 0
-16 15 6 0
16 -15 0
16 -6 0
-17 16 7 0
17 -16 0
17 -7 0
-18 17 8 0
18 -17 0
18 -8 0
-19 18 9 0
19 -18 0
19 -9 0
-11 -2 0
-12 -3 0
-13 -4 0
-14 -5 0
-15 -6 0
-16 -7 0
-17 -8 0
-18 -9 0
-19 -10 0
20 21 22 23 24 25 26 27 28 29  0
-30 20 0
30 -20 0
-31 30 21 0
31 -30 0
31 -21 0
-32 31 22 0
32 -31 0
32 -22 0
-33 32 23 0
33 -32 0
33 -23 0
-34 33 24 0
34 -33 0
34 -24 0
-35 34 25 0
35 -34 0
35 -25 0
-36 35 26 0
36 -35 0
36 -26 0
-37 36 27 0
37 -36 0
37 -27 0
-38 37 28 0
38 -37 0
38 -28 0
-30 -21 0
-31 -22 0
-32 -23 0
-33 -24 0
-34 -25 0
-35 -26 0
-36 -27 0
-37 -28 0
-38 -29 0
39 40 41 42 43 44 45 46 47 48  0
-49 39 0
49 -39 0
-50 49 40 0
50 -49 0
50 -40 0
-51 50 41 0
51 -50 0
51 -41 0
-52 51 42 0
52 -51 0
52 -42 0
-53 52 43 0
53 -52 0
53 -43 0
-54 53 44 0
54 -53 0
54 -44 0
-55 54 45 0
55 -54 0
55 -45 0
-56 55 46 0
56 -55 0
56 -46 0
-57 56 47 0
57 -56 0
57 -47 0
-49 -40 0
-50 -41 0
-51 -42 0
-52 -43 0
-53 -44 0
-54 -45 0
-55 -46 0
-56 -47 0
-57 -48 0
58 59 60 61 62 63 64 65 66 67  0
-68 58 0
68 -58 0
-69 68 59 0
69 -68 0
69 -59 0
-70 69 60 0
70 -69 0
70 -60 0
-71 70 61 0
71 -70 0
71 -61 0
-72 71 62 0
72 -71 0
72 -62 0
-73 72 63 0
73 -72 0
73 -63 0
-74 73 64 0
74 -73 0
74 -64 0
-75 74 65 0
75 -74 0
75 -65 0
-76 75 66 0
76 -75 0
76 -66 0
-68 -59 0
-69 -60 0
-70 -61 0
-71 -62 0
-72 -63 0
-73 -64 0
-74 -65 0
-75 -66 0
-76 -67 0
77 78 79 80 81 82 83 84 85 86  0
-87 77 0
87 -77 0
-88 87 78 0
88 -87 0
88 -78 0
-89 88 79 0
89 -88 0
89 -79 0
-90 89 80 0
90 -89 0
90 -80 0
-91 90 81 0
91 -90 0
91 -81 0
-92 91 82 0
92 -91 0
92 -82 0
-93 92 83 0
93 -92 0
93 -83 0
-94 93 84 0
94 -93 0
94 -84 0
-95 94 85 0
95 -94 0
95 -85 0
-87 -78 0
-88 -79 0
-89 -80 0
-90 -81 0
-91 -82 0
-92 -83 0
-93 -84 0
-94 -85 0
-95 -86 0
96 97 98 99 100 101 102 103 104 105  0
-106 96 0
106 -96 0
-107 106 97 0
107 -106 0
107 -97 0
-108 107 98 0
108 -107 0
108 -98 0
-109 108 99 0
109 -108 0
109 -99 0
-110 109 100 0
110 -109 0
110 -100 0
-111 110 101 0
111 -110 0
111 -101 0
-112 111 102 0
112 -111 0
112 -102 0
-113 112 103 0
113 -112 0
113 -103 0
-114 113 104 0
114 -113 0
114 -104 0
-106 -97 0
-107 -98 0
-108 -99 0
-109 -100 0
-110 -101 0
-111 -102 0
-112 -103 0
-113 -104 0
-114 -105 0
115 116 117 118 119 120 121 122 123 124  0
-125 115 0
125 -115 0
-126 125 116 0
126 -125 0
126 -116 0
-127 126 117 0
127 -126 0
127 -117 0
-128 127 118 0
128 -127 0
128 -118 0
-129 128 119 0
129 -128 0
129 -119 0
-130 129 120 0
130 -129 0
130 -120 0
-131 130 121 0
131 -130 0
131 -121 0
-132 131 122 0
132 -131 0
132 -122 0
-133 132 123 0
133 -132 0
133 -123 0
-125 -116 0
-126 -117 0
-127 -118 0
-128 -119 0
-129 -120 0
-130 -121 0
-131 -122 0
-132 -123 0
-133 -124 0
134 135 136 137 138 139 140 141 142 143  0
-144 134 0
144 -134 0
-145 144 135 0
145 -144 0
145 -135 0
-146 145 136 0
146 -145 0
146 -136 0
-147 146 137 0
147 -146 0
147 -137 0
-148 147 138 0
148 -147 0
148 -138 0
-149 148 139 0
149 -148 0
149 -139 0
-150 149 140 0
150 -149 0
150 -140 0
-151 150 141 0
151 -150 0
151 -141 0
-152 151 142 0
152 -151 0
152 -142 0
-144 -135 0
-145 -136 0
-146 -137 0
-147 -138 0
-148 -139 0
-149 -140 0
-150 -141 0
-151 -142 0
-152 -143 0
153 154 155 156 157 158 159 160 161 162  0
-163 153 0
163 -153 0
-164 163 154 0
164 -163 0
164 -154 0
-165 164 155 0
165 -164 0
165 -155 0
-166 165 156 0
166 -165 0
166 -156 0
-167 166 157 0
167 -166 0
167 -157 0
-168 167 158 0
168 -167 0
168 -158 0
-169 168 159 0
169 -168 0
169 -159 0
-170 169 160 0
170 -169 0
170 -160 0
-171 170 161 0
171 -170 0
171 -161 0
-163 -154 0
-164 -155 0
-165 -156 0
-166 -157 0
-167 -158 0
-168 -159 0
-169 -160 0
-170 -161 0
-171 -162 0
172 173 174 175 176 177 178 179 180 181  0
-182 172 0
182 -172 0
-183 182 173 0
183 -182 0
183 -173 0
-184 183 174 0
184 -183 0
184 -174 0
-185 184 175 0
185 -184 0
185 -175 0
-186 185 176 0
186 -185 0
186 -176 0
-187 186 177 0
187 -186 0
187 -177 0
-188 187 178 0
188 -187 0
188 -178 0
-189 188 179 0
189 -188 0
189 -179 0
-190 189 180 0
190 -189 0
190 -180 0
-182 -173 0
-183 -174 0
-184 -175 0
-185 -176 0
-186 -177 0
-187 -178 0
-188 -179 0
-189 -180 0
-190 -181 0
191 192 193 194 195 196 197 198 199 200  0
-201 191 0
201 -191 0
-202 201 192 0
202 -201 0
202 -192 0
-203 202 193 0
203 -202 0
203 -193 0
-204 203 194 0
204 -203 0
204 -194 0
-205 204 195 0
205 -204 0
205 -195 0
-206 205 196 0
206 -205 0
206 -196 0
-207 206 197 0
207 -206 0
207 -197 0
-208 207 198 0
208 -207 0
208 -198 0
-209 208 199 0
209 -208 0
209 -199 0
-201 -192 0
-202 -193 0
-203 -194 0
-204 -195 0
-205 -196 0
-206 -197 0
-207 -198 0
-208 -199 0
-209 -200 0
-20 -1 0
-39 -1 0
-39 -20 0
-58 -1 0
-58 -20 0
-58 -39 0
-77 -1 0
-77 -20 0
-77 -39 0
-77 -58 0
-96 -1 0
-96 -20 0
-96 -39 0
-96 -58 0
-96 -77 0
-115 -1 0
-115 -20 0
-115 -39 0
-115 -58 0
-115 -77 0
-115 -96 0
-134 -1 0
-134 -20 0
-134 -39 0
-134 -58 0
-134 -77 0
-134 -96 0
-134 -115 0
-153 -1 0
-153 -20 0
-153 -39 0
-153 -58 0
-153 -77 0
-153 -96 0
-153 -115 0
-153 -134 0
-172 -1 0
-172 -20 0
-172 -39 0
-172 -58 0
-172 -77 0
-172 -96 0
-172 -115 0
-172 -134 0
-172 -153 0
-191 -1 0
-191 -20 0
-191 -39 0
-191 -58 0
-191 -77 0
-191 -96 0
-191 -115 0
-191 -134 0
-191 -153 0
-191 -172 0
-21 -2 0
-40 -2 0
-40 -21 0
-59 -2 0
-59 -21 0
-59 -40 0
-78 -2 0
-78 -21 0
-78 -40 0
-78 -59 0
-97 -2 0
-97 -21 0
-97 -40 0
-97 -59 0
-97 -78 0
-116 -2 0
-116 -21 0
-116 -40 0
-116 -59 0
-116 -78 0
-116 -97 0
-135 -2 0
-135 -21 0
-135 -40 0
-135 -59 0
-135 -78 0
-135 -97 0
-135 -116 0
-154 -2 0
-154 -21 0
-154 -40 0
-154 -59 0
-154 -78 0
-154 -97 0
-154 -116 0
-154 -135 0
-173 -2 0
-173 -21 0
-173 -40 0
-173 -59 0
-173 -78 0
-173 -97 0
-173 -116 0
-173 -135 0
-173 -154 0
-192 -2 0
-192 -21 0
-192 -40 0
-192 -59 0
-192 -78 0
-192 -97 0
-192 -116 0
-192 -135 0
-192 -154 0
-192 -173 0
-22 -3 0
-41 -3 0
-41 -22 0
-60 -3 0
-60 -22 0
-60 -41 0
-79 -3 0
-79 -22 0
-79 -41 0
-79 -60 0
-98 -3 0
-98 -22 0
-98 -41 0
-98 -60 0
-98 -79 0
-117 -3 0
-117 -22 0
-117 -41 0
-117 -60 0
-117 -79 0
-117 -98 0
-136 -3 0
-136 -22 0
-136 -41 0
-136 -60 0
-136 -79 0
-136 -98 0
-136 -117 0
-155 -3 0
-155 -22 0
-155 -41 0
-155 -60 0
-155 -79 0
-155 -98 0
-155 -117 0
-155 -136 0
-174 -3 0
-174 -22 0
-174 -41 0
-174 -60 0
-174 -79 0
-174 -98 0
-174 -117 0
-174 -136 0
-174 -155 0
-193 -3 0
-193 -22 0
-193 -41 0
-193 -60 0
-193 -79 0
-193 -98 0
-193 -117 0
-193 -136 0
-193 -155 0
-193 -174 0
-23 -4 0
-42 -4 0
-42 -23 0
-61 -4 0
-61 -23 0
-61 -42 0
-80 -4 0
-80 -23 0
-80 -42 0
-80 -61 0
-99 -4 0
-99 -23 0
-99 -42 0
-99 -61 0
-99 -80 0
-118 -4 0
-118 -23 0
-118 -42 0
-118 -61 0
-118 -80 0
-118 -99 0
-137 -4 0
-137 -23 0
-137 -42 0
-137 -61 0
-137 -80 0
-137 -99 0
-137 -118 0
-156 -4 0
-156 -23 0
-156 -42 0
-156 -61 0
-156 -80 0
-156 -99 0
-156 -118 0
-156 -137 0
-175 -4 0
-175 -23 0
-175 -42 0
-175 -61 0
-175 -80 0
-175 -99 0
-175 -118 0
-175 -137 0
-175 -156 0
-194 -4 0
-194 -23 0
-194 -42 0
-194 -61 0
-194 -80 0
-194 -99 0
-194 -118 0
-194 -137 0
-194 -156 0
-194 -175 0
-24 -5 0
-43 -5 0
-43 -24 0
-62 -5 0
-62 -24 0
-62 -43 0
-81 -5 0
-81 -24 0
-81 -43 0
-81 -62 0
-100 -5 0
-100 -24 0
-100 -43 0
-100 -62 0
-100 -81 0
-119 -5 0
-119 -24 0
-119 -43 0
-119 -62 0
-119 -81 0
-119 -100 0
-138 -5 0
-138 -24 0
-138 -43 0
-138 -62 0
-138 -81 0
-138 -100 0
-138 -119 0
-157 -5 0
-157 -24 0
-157 -43 0
-157 -62 0
-157 -81 0
-157 -100 0
-157 -119 0
-157 -138 0
-176 -5 0
-176 -24 0
-176 -43 0
-176 -62 0
-176 -81 0
-176 -100 0
-176 -119 0
-176 -138 0
-176 -157 0
-195 -5 0
-195 -24 0
-195 -43 0
-195 -62 0
-195 -81 0
-195 -100 0
-195 -119 0
-195 -138 0
-195 -157 0
-195 -176 0
-25 -6 0
-44 -6 0
-44 -25 0
-63 -6 0
-63 -25 0
-63 -44 0
-82 -6 0
-82 -25 0
-82 -44 0
-82 -63 0
-101 -6 0
-101 -25 0
-101 -44 0
-101 -63 0
-101 -82 0
-120 -6 0
-120 -25 0
-120 -44 0
-120 -63 0
-120 -82 0
-120 -101 0
-139 -6 0
-139 -25 0
-139 -44 0
-139 -63 0
-139 -82 0
-139 -101 0
-139 -120 0
-158 -6 0
-158 -25 0
-158 -44 0
-158 -63 0
-158 -82 0
-158 -101 0
-158 -120 0
-158 -139 0
-177 -6 0
-177 -25 0
-177 -44 0
-177 -63 0
-177 -82 0
-177 -101 0
-177 -120 0
-177 -139 0
-177 -158 0
-196 -6 0
-196 -25 0
-196 -44 0
-196 -63 0
-196 -82 0
-196 -101 0
-196 -120 0
-196 -139 0
-196 -158 0
-196 -177 0
-26 -7 0
-45 -7 0
-45 -26 0
-64 -7 0
-64 -26 0
-64 -45 0
-83 -7 0
-83 -26 0
-83 -45 0
-83 -64 0
-102 -7 0
-102 -26 0
-102 -45 0
-102 -64 0
-102 -83 0
-121 -7 0
-121 -26 0
-121 -45 0
-121 -64 0
-121 -83 0
-121 -102 0
-140 -7 0
-140 -26 0
-140 -45 0
-140 -64 0
-140 -83 0
-140 -102 0
-140 -121 0
-159 -7 0
-159 -26 0
-159 -45 0
-159 -64 0
-159 -83 0
-159 -102 0
-159 -121 0
-159 -140 0
-178 -7 0
-178 -26 0
-178 -45 0
-178 -64 0
-178 -83 0
-178 -102 0
-178 -121 0
-178 -140 0
-178 -159 0
-197 -7 0
-197 -26 0
-197 -45 0
-197 -64 0
-197 -83 0
-197 -102 0
-197 -121 0
-197 -140 0
-197 -159 0
-197 -178 0
-27 -8 0
-46 -8 0
-46 -27 0
-65 -8 0
-65 -27 0
-65 -46 0
-84 -8 0
-84 -27 0
-84 -46 0
-84 -65 0
-103 -8 0
-103 -27 0
-103 -46 0
-103 -65 0
-103 -84 0
-122 -8 0
-122 -27 0
-122 -46 0
-122 -65 0
-122 -84 0
-122 -103 0
-141 -8 0
-141 -27 0
-141 -46 0
-141 -65 0
-141 -84 0
-141 -103 0
-141 -122 0
-160 -8 0
-160 -27 0
-160 -46 0
-160 -65 0
-160 -84 0
-160 -103 0
-160 -122 0
-160 -141 0
-179 -8 0
-179 -27 0
-179 -46 0
-179 -65 0
-179 -84 0
-179 -103 0
-179 -122 0
-179 -141 0
-179 -160 0
-198 -8 0
-198 -27 0
-198 -46 0
-198 -65 0
-198 -84 0
-198 -103 0
-198 -122 0
-198 -141 0
-198 -160 0
-198 -179 0
-28 -9 0
-47 -9 0
-47 -28 0
-66 -9 0
-66 -28 0
-66 -47 0
-85 -9 0
-85 -28 0
-85 -47 0
-85 -66 0
-104 -9 0
-104 -28 0
-104 -47 0
-104 -66 0
-104 -85 0
-123 -9 0
-123 -28 0
-123 -47 0
-123 -66 0
-123 -85 0
-123 -104 0
-142 -9 0
-142 -28 0
-142 -47 0
-142 -66 0
-142 -85 0
-142 -104 0
-142 -123 0
-161 -9 0
-161 -28 0
-161 -47 0
-161 -66 0
-161 -85 0
-161 -104 0
-161 -123 0
-161 -142 0
-180 -9 0
-180 -28 0
-180 -47 0
-180 -66 0
-180 -85 0
-180 -104 0
-180 -123 0
-180 -142 0
-180 -161 0
-199 -9 0
-199 -28 0
-199 -47 0
-199 -66 0
-199 -85 0
-199 -104 0
-199 -123 0
-199 -142 0
-199 -161 0
-199 -180 0
-29 -10 0
-48 -10 0
-48 -29 0
-67 -10 0
-67 -29 0
-67 -48 0
-86 -10 0
-86 -29 0
-86 -48 0
-86 -67 0
-105 -10 0
-105 -29 0
-105 -48 0
-105 -67 0
-105 -86 0
-124 -10 0
-124 -29 0
-124 -48 0
-124 -67 0
-124 -86 0
-124 -105 0
-143 -10 0
-143 -29 0
-143 -48 0
-143 -67 0
-143 -86 0
-143 -105 0
-143 -124 0
-162 -10 0
-162 -29 0
-162 -48 0
-162 -67 0
-162 -86 0
-162 -105 0
-162 -124 0
-162 -143 0
-181 -10 0
-181 -29 0
-181 -48 0
-181 -67 0
-181 -86 0
-181 -105 0
-181 -124 0
-181 -143 0
-181 -162 0
-200 -10 0
-200 -29 0
-200 -48 0
-200 -67 0
-200 -86 0
-200 -105 0
-200 -124 0
-200 -143 0
-200 -162 0
-200 -181 0
